projected/problems_b25_r0_d7_m100_s666/_DIMACS/b25_d7_r0_s666_075.cnf
p cnf 323 630 25
c p show 1 2 3 4 5 6 7 8 9 10 11 12 13 14 15 16 17 18 19 20 21 22 23 24 25
-26 -14 0
-26 -11 0
-27 -21 0
-27 23 0
-28 27 26 0
-29 18 -11 0
-30 11 -18 0
-31 30 0
-31 29 0
-32 25 1 0
-33 32 0
-33 31 0
-34 33 28 0
-35 16 0
-35 -18 0
-36 12 0
-36 -1 0
-37 36 0
-37 35 0
-38 -25 0
-38 7 0
-39 -5 0
-39 19 0
-40 39 38 0
-41 5 -19 0
-42 25 -7 0
-43 42 41 0
-44 43 0
-44 40 0
-45 44 0
-45 37 0
-46 45 0
-46 34 0
-47 8 23 0
-48 -5 0
-48 -2 0
-49 48 47 0
-50 9 0
-50 -23 0
-51 21 0
-51 -16 0
-52 51 0
-52 50 0
-53 52 0
-53 49 0
-54 -9 23 0
-55 -21 16 0
-56 55 54 0
-57 -8 0
-57 -23 0
-58 5 2 0
-59 58 0
-59 57 0
-60 59 0
-60 56 0
-61 60 53 0
-62 -15 7 0
-63 -16 -15 0
-64 63 62 0
-65 -4 -1 0
-66 -24 0
-66 -13 0
-67 66 0
-67 65 0
-68 67 0
-68 64 0
-69 68 0
-69 61 0
-70 69 0
-70 46 0
-71 7 0
-71 -13 0
-72 15 -21 0
-73 72 0
-73 71 0
-74 -15 0
-74 21 0
-75 -7 13 0
-76 75 0
-76 74 0
-77 76 73 0
-78 2 -12 0
-79 4 0
-79 2 0
-80 79 0
-80 78 0
-81 80 0
-81 77 0
-82 -11 21 0
-83 -21 11 0
-84 83 0
-84 82 0
-85 14 -25 0
-86 85 84 0
-87 -6 0
-87 22 0
-88 -3 0
-88 -2 0
-89 88 0
-89 87 0
-90 89 86 0
-91 90 81 0
-92 23 0
-92 -5 0
-93 -5 0
-94 5 0
-95 94 93 0
-96 95 92 0
-97 22 0
-97 -24 0
-98 -4 0
-98 -5 0
-99 98 0
-99 97 0
-100 99 0
-100 96 0
-101 3 0
-101 -23 0
-102 6 0
-102 -14 0
-103 102 101 0
-104 -24 0
-104 -17 0
-105 -19 0
-105 -1 0
-106 1 0
-106 19 0
-107 106 105 0
-108 107 104 0
-109 108 0
-109 103 0
-110 109 100 0
-111 110 0
-111 91 0
-112 111 70 0
-113 19 0
-113 -10 0
-114 -19 0
-114 6 0
-115 114 0
-115 113 0
-116 5 -15 0
-117 -22 18 0
-118 117 0
-118 116 0
-119 118 0
-119 115 0
-120 13 0
-120 18 0
-121 7 0
-121 2 0
-122 121 0
-122 120 0
-123 6 -12 0
-124 -8 0
-124 18 0
-125 124 0
-125 123 0
-126 125 0
-126 122 0
-127 126 0
-127 119 0
-128 -13 -18 0
-129 -7 -2 0
-130 129 128 0
-131 -6 0
-131 12 0
-132 8 -18 0
-133 132 131 0
-134 133 130 0
-135 -19 10 0
-136 19 -6 0
-137 136 135 0
-138 -5 0
-138 15 0
-139 22 0
-139 -18 0
-140 139 138 0
-141 140 137 0
-142 141 0
-142 134 0
-143 142 127 0
-144 16 0
-144 19 0
-145 -5 0
-145 -24 0
-146 145 0
-146 144 0
-147 -21 -23 0
-148 -4 0
-148 -19 0
-149 148 147 0
-150 149 0
-150 146 0
-151 24 0
-151 -3 0
-152 3 0
-152 -24 0
-153 152 151 0
-154 1 -17 0
-155 154 0
-155 153 0
-156 -16 0
-156 12 0
-157 -5 0
-157 3 0
-158 157 156 0
-159 158 0
-159 155 0
-160 159 0
-160 150 0
-161 160 0
-161 143 0
-162 -14 0
-162 -25 0
-163 -12 -19 0
-164 163 0
-164 162 0
-165 -9 0
-165 -19 0
-166 19 0
-166 9 0
-167 166 165 0
-168 -1 4 0
-169 168 167 0
-170 169 164 0
-171 -17 0
-171 2 0
-172 5 -23 0
-173 172 171 0
-174 -6 -8 0
-175 -21 0
-176 175 0
-176 174 0
-177 176 173 0
-178 177 170 0
-179 16 -22 0
-180 19 0
-180 24 0
-181 180 0
-181 179 0
-182 -21 0
-182 -23 0
-183 18 0
-183 10 0
-184 183 182 0
-185 184 0
-185 181 0
-186 -20 0
-186 15 0
-187 -25 22 0
-188 187 186 0
-189 20 13 0
-190 10 -16 0
-191 190 189 0
-192 191 188 0
-193 192 0
-193 185 0
-194 20 -15 0
-195 25 0
-195 -22 0
-196 195 0
-196 194 0
-197 -20 0
-197 -13 0
-198 -10 0
-198 16 0
-199 198 0
-199 197 0
-200 199 0
-200 196 0
-201 -16 0
-201 22 0
-202 -19 -24 0
-203 202 201 0
-204 21 23 0
-205 -18 -10 0
-206 205 0
-206 204 0
-207 206 203 0
-208 207 0
-208 200 0
-209 208 193 0
-210 209 178 0
-211 210 161 0
-212 211 112 0
-213 134 141 0
-214 119 126 0
-215 214 0
-215 213 0
-216 -16 -19 0
-217 5 24 0
-218 217 216 0
-219 21 0
-219 23 0
-220 4 19 0
-221 220 0
-221 219 0
-222 221 218 0
-223 -24 3 0
-224 -3 24 0
-225 224 0
-225 223 0
-226 -1 0
-226 17 0
-227 226 225 0
-228 16 -12 0
-229 5 -3 0
-230 229 0
-230 228 0
-231 230 227 0
-232 231 222 0
-233 232 215 0
-234 14 25 0
-235 12 0
-235 19 0
-236 235 234 0
-237 9 19 0
-238 -19 -9 0
-239 238 0
-239 237 0
-240 1 0
-240 -4 0
-241 240 0
-241 239 0
-242 241 0
-242 236 0
-243 17 -2 0
-244 -5 0
-244 23 0
-245 244 0
-245 243 0
-246 6 0
-246 8 0
-247 21 0
-248 247 246 0
-249 248 0
-249 245 0
-250 249 0
-250 242 0
-251 200 207 0
-252 185 192 0
-253 252 0
-253 251 0
-254 253 0
-254 250 0
-255 254 0
-255 233 0
-256 14 11 0
-257 21 -23 0
-258 257 0
-258 256 0
-259 -18 0
-259 11 0
-260 -11 0
-260 18 0
-261 260 259 0
-262 -25 0
-262 -1 0
-263 262 261 0
-264 263 0
-264 258 0
-265 -16 18 0
-266 -12 1 0
-267 266 265 0
-268 41 0
-268 42 0
-269 38 0
-269 39 0
-270 269 268 0
-271 270 267 0
-272 271 264 0
-273 56 59 0
-274 49 52 0
-275 274 0
-275 273 0
-276 15 0
-276 -7 0
-277 16 0
-277 15 0
-278 277 0
-278 276 0
-279 4 0
-279 1 0
-280 24 13 0
-281 280 279 0
-282 281 278 0
-283 282 275 0
-284 283 272 0
-285 74 75 0
-286 71 72 0
-287 286 0
-287 285 0
-288 -2 0
-288 12 0
-289 -4 -2 0
-290 289 288 0
-291 290 287 0
-292 11 0
-292 -21 0
-293 21 0
-293 -11 0
-294 293 292 0
-295 -14 0
-295 25 0
-296 295 0
-296 294 0
-297 6 -22 0
-298 3 2 0
-299 298 297 0
-300 299 0
-300 296 0
-301 300 0
-301 291 0
-302 -23 5 0
-303 5 0
-304 -5 0
-305 304 0
-305 303 0
-306 305 0
-306 302 0
-307 -22 24 0
-308 4 5 0
-309 308 307 0
-310 309 306 0
-311 -3 23 0
-312 -6 14 0
-313 312 0
-313 311 0
-314 24 17 0
-315 19 1 0
-316 -1 -19 0
-317 316 0
-317 315 0
-318 317 0
-318 314 0
-319 318 313 0
-320 319 0
-320 310 0
-321 320 301 0
-322 321 0
-322 284 0
-323 322 255 0
323 0
212 0
-120 -128 0
-121 -129 0
-122 -130 0
-130 -122 0
-131 -123 0
-123 -131 0
-124 -132 0
-125 -133 0
-133 -125 0
-134 -126 0
-126 -134 0
-113 -135 0
-136 -114 0
-114 -136 0
-115 -137 0
-138 -116 0
-139 -117 0
-140 -118 0
-118 -140 0
-119 -141 0
-141 -119 0
-215 -143 0
-216 -144 0
-217 -145 0
-218 -146 0
-146 -218 0
-147 -219 0
-148 -220 0
-149 -221 0
-150 -222 0
-222 -150 0
-225 -153 0
-154 -226 0
-226 -154 0
-227 -155 0
-156 -228 0
-157 -229 0
-158 -230 0
-230 -158 0
-231 -159 0
-232 -160 0
-233 -161 0
-162 -234 0
-234 -162 0
-235 -163 0
-236 -164 0
-239 -167 0
-240 -168 0
-241 -169 0
-242 -170 0
-170 -242 0
-171 -243 0
-243 -171 0
-244 -172 0
-245 -173 0
-173 -245 0
-174 -246 0
-247 -175 0
-175 -247 0
-176 -248 0
-177 -249 0
-178 -250 0
-250 -178 0
-194 -186 0
-186 -194 0
-195 -187 0
-187 -195 0
-188 -196 0
-196 -188 0
-197 -189 0
-198 -190 0
-199 -191 0
-200 -192 0
-192 -200 0
-179 -201 0
-180 -202 0
-181 -203 0
-203 -181 0
-182 -204 0
-183 -205 0
-184 -206 0
-206 -184 0
-207 -185 0
-253 -209 0
-254 -210 0
-255 -211 0
-26 -256 0
-27 -257 0
-28 -258 0
-258 -28 0
-31 -261 0
-262 -32 0
-32 -262 0
-33 -263 0
-263 -33 0
-264 -34 0
-34 -264 0
-35 -265 0
-36 -266 0
-37 -267 0
-39 -41 0
-41 -39 0
-42 -38 0
-38 -42 0
-44 -270 0
-45 -271 0
-46 -272 0
-272 -46 0
-54 -50 0
-55 -51 0
-56 -52 0
-52 -56 0
-47 -57 0
-48 -58 0
-49 -59 0
-59 -49 0
-275 -61 0
-61 -275 0
-276 -62 0
-63 -277 0
-277 -63 0
-278 -64 0
-279 -65 0
-65 -279 0
-280 -66 0
-66 -280 0
-67 -281 0
-281 -67 0
-282 -68 0
-68 -282 0
-69 -283 0
-283 -69 0
-284 -70 0
-74 -72 0
-72 -74 0
-71 -75 0
-75 -71 0
-287 -77 0
-77 -287 0
-78 -288 0
-288 -78 0
-289 -79 0
-290 -80 0
-80 -290 0
-81 -291 0
-291 -81 0
-84 -294 0
-294 -84 0
-85 -295 0
-295 -85 0
-296 -86 0
-86 -296 0
-297 -87 0
-298 -88 0
-299 -89 0
-89 -299 0
-90 -300 0
-300 -90 0
-301 -91 0
-92 -302 0
-305 -95 0
-95 -305 0
-96 -306 0
-306 -96 0
-97 -307 0
-308 -98 0
-98 -308 0
-99 -309 0
-309 -99 0
-310 -100 0
-311 -101 0
-101 -311 0
-312 -102 0
-102 -312 0
-103 -313 0
-314 -104 0
-317 -107 0
-318 -108 0
-108 -318 0
-109 -319 0
-319 -109 0
-320 -110 0
-321 -111 0
-322 -112 0
-112 -322 0
