projected/problems_b25_r0_d7_m100_s666/b25_d7_r0_s666_075.smt2
(set-logic QF_UF)
(declare-fun A0 () Bool)
(declare-fun A1 () Bool)
(declare-fun A2 () Bool)
(declare-fun A3 () Bool)
(declare-fun A4 () Bool)
(declare-fun A5 () Bool)
(declare-fun A6 () Bool)
(declare-fun A7 () Bool)
(declare-fun A8 () Bool)
(declare-fun A9 () Bool)
(declare-fun A10 () Bool)
(declare-fun A11 () Bool)
(declare-fun A12 () Bool)
(declare-fun A13 () Bool)
(declare-fun A14 () Bool)
(declare-fun A15 () Bool)
(declare-fun A16 () Bool)
(declare-fun A17 () Bool)
(declare-fun A18 () Bool)
(declare-fun A19 () Bool)
(declare-fun A20 () Bool)
(declare-fun A21 () Bool)
(declare-fun A22 () Bool)
(declare-fun A23 () Bool)
(declare-fun A24 () Bool)
(assert (let ((.def_0 (and A12 A17))) (let ((.def_1 (and A6 A1))) (let ((.def_2 (and .def_1 .def_0))) (let ((.def_3 (not .def_2))) (let ((.def_4 (not A5))) (let ((.def_5 (and .def_4 A11))) (let ((.def_6 (not .def_5))) (let ((.def_7 (not A7))) (let ((.def_8 (and .def_7 A17))) (let ((.def_9 (and .def_8 .def_6))) (let ((.def_10 (not .def_9))) (let ((.def_11 (or .def_10 .def_3))) (let ((.def_12 (not .def_11))) (let ((.def_13 (not A9))) (let ((.def_14 (and A18 .def_13))) (let ((.def_15 (or A18 .def_4))) (let ((.def_16 (not .def_15))) (let ((.def_17 (and .def_16 .def_14))) (let ((.def_18 (not A4))) (let ((.def_19 (and .def_18 A14))) (let ((.def_20 (not A17))) (let ((.def_21 (and A21 .def_20))) (let ((.def_22 (or .def_21 .def_19))) (let ((.def_23 (not .def_22))) (let ((.def_24 (and .def_23 .def_17))) (let ((.def_25 (not .def_24))) (let ((.def_26 (= .def_25 .def_12))) (let ((.def_27 (not A18))) (let ((.def_28 (not A15))) (let ((.def_29 (or .def_28 .def_27))) (let ((.def_30 (or A4 A23))) (let ((.def_31 (or .def_30 .def_29))) (let ((.def_32 (not .def_31))) (let ((.def_33 (not A22))) (let ((.def_34 (not A20))) (let ((.def_35 (or .def_34 .def_33))) (let ((.def_36 (not A3))) (let ((.def_37 (and .def_36 .def_27))) (let ((.def_38 (or .def_37 .def_35))) (let ((.def_39 (and .def_38 .def_32))) (let ((.def_40 (not .def_39))) (let ((.def_41 (= A2 A23))) (let ((.def_42 (not A16))) (let ((.def_43 (or A0 .def_42))) (let ((.def_44 (not .def_43))) (let ((.def_45 (or .def_44 .def_41))) (let ((.def_46 (and .def_28 A11))) (let ((.def_47 (and .def_18 A2))) (let ((.def_48 (or .def_47 .def_46))) (let ((.def_49 (not .def_48))) (let ((.def_50 (or .def_49 .def_45))) (let ((.def_51 (or .def_50 .def_40))) (let ((.def_52 (or .def_51 .def_26))) (let ((.def_53 (not A24))) (let ((.def_54 (not A13))) (let ((.def_55 (and .def_54 .def_53))) (let ((.def_56 (not .def_55))) (let ((.def_57 (and A11 A18))) (let ((.def_58 (or .def_57 .def_56))) (let ((.def_59 (not A8))) (let ((.def_60 (= A18 .def_59))) (let ((.def_61 (and A0 .def_36))) (let ((.def_62 (and .def_61 .def_60))) (let ((.def_63 (and .def_62 .def_58))) (let ((.def_64 (not .def_63))) (let ((.def_65 (and .def_42 A1))) (let ((.def_66 (not .def_65))) (let ((.def_67 (and .def_18 A22))) (let ((.def_68 (and .def_67 .def_66))) (let ((.def_69 (not .def_68))) (let ((.def_70 (or .def_4 .def_7))) (let ((.def_71 (or A20 A20))) (let ((.def_72 (not .def_71))) (let ((.def_73 (and .def_72 .def_70))) (let ((.def_74 (or .def_73 .def_69))) (let ((.def_75 (or .def_74 .def_64))) (let ((.def_76 (not .def_75))) (let ((.def_77 (not A14))) (let ((.def_78 (or A19 .def_77))) (let ((.def_79 (not .def_78))) (let ((.def_80 (not A21))) (let ((.def_81 (and A24 .def_80))) (let ((.def_82 (not .def_81))) (let ((.def_83 (or .def_82 .def_79))) (let ((.def_84 (not .def_83))) (let ((.def_85 (not A12))) (let ((.def_86 (not A19))) (let ((.def_87 (and .def_86 .def_85))) (let ((.def_88 (and .def_13 A15))) (let ((.def_89 (and .def_88 .def_87))) (let ((.def_90 (and .def_89 .def_84))) (let ((.def_91 (not .def_90))) (let ((.def_92 (or A15 .def_80))) (let ((.def_93 (and A18 A23))) (let ((.def_94 (and .def_93 .def_92))) (let ((.def_95 (not .def_94))) (let ((.def_96 (and .def_34 .def_33))) (let ((.def_97 (and A17 A9))) (let ((.def_98 (or .def_97 .def_96))) (let ((.def_99 (not .def_98))) (let ((.def_100 (or .def_99 .def_95))) (let ((.def_101 (= .def_100 .def_91))) (let ((.def_102 (and .def_101 .def_76))) (let ((.def_103 (and .def_102 .def_52))) (let ((.def_104 (not A10))) (let ((.def_105 (and .def_54 .def_104))) (let ((.def_106 (and .def_34 A22))) (let ((.def_107 (or .def_106 .def_105))) (let ((.def_108 (not .def_107))) (let ((.def_109 (= .def_104 .def_20))) (let ((.def_110 (not A0))) (let ((.def_111 (and .def_53 .def_110))) (let ((.def_112 (not .def_111))) (let ((.def_113 (and .def_112 .def_109))) (let ((.def_114 (not .def_113))) (let ((.def_115 (and .def_114 .def_108))) (let ((.def_116 (not .def_115))) (let ((.def_117 (and A15 .def_20))) (let ((.def_118 (and A11 .def_110))) (let ((.def_119 (and .def_118 .def_117))) (let ((.def_120 (and .def_18 A18))) (let ((.def_121 (not .def_120))) (let ((.def_122 (not A6))) (let ((.def_123 (or A24 .def_122))) (let ((.def_124 (not .def_123))) (let ((.def_125 (= .def_124 .def_121))) (let ((.def_126 (and .def_125 .def_119))) (let ((.def_127 (and .def_126 .def_116))) (let ((.def_128 (not .def_127))) (let ((.def_129 (or .def_59 A22))) (let ((.def_130 (or .def_34 A15))) (let ((.def_131 (or .def_130 .def_129))) (let ((.def_132 (not .def_131))) (let ((.def_133 (or A7 A22))) (let ((.def_134 (not A1))) (let ((.def_135 (and .def_18 .def_134))) (let ((.def_136 (or .def_135 .def_133))) (let ((.def_137 (not .def_136))) (let ((.def_138 (= .def_137 .def_132))) (let ((.def_139 (not .def_138))) (let ((.def_140 (and A14 .def_122))) (let ((.def_141 (or .def_28 .def_77))) (let ((.def_142 (not .def_141))) (let ((.def_143 (and .def_142 .def_140))) (let ((.def_144 (and A3 A0))) (let ((.def_145 (not .def_144))) (let ((.def_146 (or A23 A12))) (let ((.def_147 (not .def_146))) (let ((.def_148 (and .def_147 .def_145))) (let ((.def_149 (not .def_148))) (let ((.def_150 (or .def_149 .def_143))) (let ((.def_151 (not .def_150))) (let ((.def_152 (and .def_151 .def_139))) (let ((.def_153 (not .def_152))) (let ((.def_154 (or .def_153 .def_128))) (let ((.def_155 (and .def_77 A20))) (let ((.def_156 (not .def_155))) (let ((.def_157 (and A6 .def_85))) (let ((.def_158 (not .def_157))) (let ((.def_159 (= .def_158 .def_156))) (let ((.def_160 (not .def_159))) (let ((.def_161 (not A11))) (let ((.def_162 (or A1 .def_161))) (let ((.def_163 (not .def_162))) (let ((.def_164 (or .def_36 .def_134))) (let ((.def_165 (or .def_164 .def_163))) (let ((.def_166 (not .def_165))) (let ((.def_167 (and .def_166 .def_160))) (let ((.def_168 (not .def_167))) (let ((.def_169 (= A20 A10))) (let ((.def_170 (not .def_169))) (let ((.def_171 (or A13 .def_53))) (let ((.def_172 (not .def_171))) (let ((.def_173 (and .def_172 .def_170))) (let ((.def_174 (not .def_173))) (let ((.def_175 (or A5 .def_80))) (let ((.def_176 (or A2 A1))) (let ((.def_177 (or .def_176 .def_175))) (let ((.def_178 (not .def_177))) (let ((.def_179 (or .def_178 .def_174))) (let ((.def_180 (not .def_179))) (let ((.def_181 (and .def_180 .def_168))) (let ((.def_182 (and A22 .def_18))) (let ((.def_183 (= A4 .def_18))) (let ((.def_184 (not .def_183))) (let ((.def_185 (or .def_184 .def_182))) (let ((.def_186 (not .def_185))) (let ((.def_187 (not A23))) (let ((.def_188 (and A21 .def_187))) (let ((.def_189 (or A3 A4))) (let ((.def_190 (not .def_189))) (let ((.def_191 (and .def_190 .def_188))) (let ((.def_192 (not .def_191))) (let ((.def_193 (or .def_192 .def_186))) (let ((.def_194 (not A2))) (let ((.def_195 (or .def_194 A22))) (let ((.def_196 (not .def_195))) (let ((.def_197 (or .def_4 A13))) (let ((.def_198 (not .def_197))) (let ((.def_199 (or .def_198 .def_196))) (let ((.def_200 (or A23 A16))) (let ((.def_201 (= A0 .def_27))) (let ((.def_202 (and .def_201 .def_200))) (let ((.def_203 (not .def_202))) (let ((.def_204 (and .def_203 .def_199))) (let ((.def_205 (not .def_204))) (let ((.def_206 (and .def_205 .def_193))) (let ((.def_207 (or .def_206 .def_181))) (let ((.def_208 (and .def_207 .def_154))) (let ((.def_209 (not .def_208))) (let ((.def_210 (= .def_209 .def_103))) .def_210))))))))))))))))))))))))))))))))))))))))))))))))))))))))))))))))))))))))))))))))))))))))))))))))))))))))))))))))))))))))))))))))))))))))))))))))))))))))))))))))))))))))))))))))))))))))))))))))))))))))))))))))))))
(check-sat)
